Generated POSCAR
1.0
 7.7455 0.0 0.0
 0.0 11.7561 0.0
 0.0 0.0 11.18
C F H N
5 1 6 3
Cartesian
 3.9313 8.3331 6.155500000000001
 3.8969 6.8323 6.1245
 3.9994 6.1182 4.9519
 3.9628 4.7145 4.982900000000001
 3.7389 4.852 7.2342
 4.1446 6.7234 3.7558000000000007
 4.0657 8.7561 5.159300000000001
 3.0 8.7158 6.5844000000000005
 4.7455 8.6712 6.803700000000001
 4.3607 4.4342 3.0000000000000004
 4.2032 3.0 3.9403000000000006
 3.633 4.3254 8.18
 4.0219 3.9848 3.833500000000001
 3.8358 4.0782 6.1503000000000005
 3.7597 6.176 7.2972
