Generated POSCAR
1.0
 7.7591 0.0 0.0
 0.0 11.7334 0.0
 0.0 0.0 11.3168
C F H N
6 1 7 2
Cartesian
 3.8787 8.3333 6.1533
 3.8794 6.8295 6.1774
 3.88 6.0915 5.005
 3.8808999999999996 4.6969 4.999499999999999
 3.8916999999999997 4.0872 6.2612
 3.8832 6.088 7.3629999999999995
 3.8886999999999996 6.7245 3.8171
 4.7591 8.7259 5.6334
 3.0 8.7244 5.6297999999999995
 3.8766 8.7334 7.1699
 4.143 4.497400000000001 3.0
 4.204 3.0536000000000003 3.8491
 3.8981999999999997 3.0 6.3233
 3.8811 6.6103000000000005 8.3168
 3.8173999999999997 3.9851 3.8066
 3.8924999999999996 4.755800000000001 7.4117
