Generated POSCAR
1.0
 7.7561 0.0 0.0
 0.0 11.8361 0.0
 0.0 0.0 11.2302
C F H O
7 1 7 1
Cartesian
 3.8599 8.4135 6.0353
 3.883 6.9083000000000006 6.0907
 3.9509000000000003 6.168200000000001 4.9191
 3.976 4.774900000000001 4.8893
 3.9307000000000003 4.0833 6.096900000000001
 3.8623000000000003 4.7974 7.289300000000001
 3.8385000000000002 6.190200000000001 7.2896
 3.9967 6.8018 3.7218000000000004
 4.7561 8.809000000000001 5.5455000000000005
 3.0 8.7791 5.463900000000001
 3.806 8.8361 7.041
 4.0656 4.753 3.0000000000000004
 3.95 3.0000000000000004 6.0785
 3.827 4.2591 8.2302
 3.785 6.7342 8.226600000000001
 4.043200000000001 4.1009 3.7111000000000005
