Generated POSCAR                        
   1.00000000000000     
     7.7591000000000001    0.0000000000000000    0.0000000000000000
     0.0000000000000000   11.7333999999999996    0.0000000000000000
     0.0000000000000000    0.0000000000000000   11.3168000000000006
   C    F    H    N 
     6     1     7     2
Direct
  0.4829694572891411  0.7163045778319739  0.5036335768773769
  0.5072746746865165  0.5893438484516954  0.5221205202998173
  0.4970757554856312  0.5118875272794458  0.4296994006251753
  0.4912438157615031  0.3945921379027663  0.4592312057379631
  0.5296789785564985  0.3678144072233192  0.5806705347797767
  0.5323419028553329  0.5501635272704873  0.6361593006619204
  0.4729153352832062  0.5459505168608569  0.3145542136326215
  0.5654153514050517  0.7600942761630718  0.5667685352391303
  0.5020216672443233  0.7389164997691937  0.4073074767274600
  0.3550733195295660  0.7364073582646782  0.5236298205256831
  0.4040461670623599  0.3055395923318606  0.3135751087566762
  0.4777712791493433  0.2326532158471158  0.4378270798690043
  0.5135788545008079  0.2783758520580816  0.6019679269374077
  0.5575870693050647  0.6123272714224118  0.7031727161075012
  0.4663744004711196  0.3035969375432359  0.3900526925023353
  0.5478503781922507  0.4378948057740343  0.6687646822586335
 
  0.16502955E-02  0.50397732E-02 -0.85365462E-03
 -0.28029732E-03 -0.29763359E-02  0.48007523E-02
 -0.13659478E-02 -0.63784382E-02 -0.25804377E-02
  0.12945905E-01  0.54152752E-02 -0.25675204E-02
 -0.13509408E-01  0.36311619E-02  0.11779658E-02
  0.19374992E-02  0.98013503E-02  0.22401605E-02
 -0.24091951E-02 -0.21778719E-02 -0.64463233E-02
 -0.24325111E-01 -0.17528235E-01 -0.11656703E-01
  0.67246170E-02  0.21695184E-02 -0.18965813E-01
 -0.61396728E-02 -0.12778323E-01 -0.67630575E-02
  0.14491496E-01  0.63590491E-02  0.90961506E-02
  0.30561199E-01  0.59639938E-02 -0.16414257E-01
  0.33690574E-01  0.52461042E-03 -0.86059431E-02
 -0.67893392E-02  0.13814936E-01 -0.94013266E-02
 -0.56726737E-02  0.49213035E-02  0.10386007E-01
  0.43159425E-02 -0.14328035E-01  0.93794316E-03
 
           1
   1.00000000000000     
 -0.43396754E+00 -0.36275878E-01 -0.36223156E-01 -0.39771802E+00
  0.48318215E+00  0.71673410E+00  0.50355814E+00
  0.50723855E+00  0.58909018E+00  0.52254473E+00
  0.49689971E+00  0.51134391E+00  0.42947138E+00
  0.49291230E+00  0.39505366E+00  0.45900433E+00
  0.52793787E+00  0.36812388E+00  0.58077462E+00
  0.53259161E+00  0.55099886E+00  0.63635725E+00
  0.47260484E+00  0.54576490E+00  0.31398459E+00
  0.56228031E+00  0.75860040E+00  0.56573850E+00
  0.50288834E+00  0.73910140E+00  0.40563158E+00
  0.35428203E+00  0.73531830E+00  0.52303221E+00
  0.40591384E+00  0.30608155E+00  0.31437888E+00
  0.48171003E+00  0.23316151E+00  0.43637665E+00
  0.51792093E+00  0.27842056E+00  0.60120747E+00
  0.55671205E+00  0.61350467E+00  0.70234198E+00
  0.46564330E+00  0.30401636E+00  0.39097044E+00
  0.54840662E+00  0.43667367E+00  0.66884756E+00
  0.00000000E+00  0.00000000E+00  0.00000000E+00
  0.00000000E+00  0.00000000E+00  0.00000000E+00
  0.00000000E+00  0.00000000E+00  0.00000000E+00
  0.00000000E+00  0.00000000E+00  0.00000000E+00
  0.00000000E+00  0.00000000E+00  0.00000000E+00
  0.00000000E+00  0.00000000E+00  0.00000000E+00
  0.00000000E+00  0.00000000E+00  0.00000000E+00
  0.00000000E+00  0.00000000E+00  0.00000000E+00
  0.00000000E+00  0.00000000E+00  0.00000000E+00
  0.00000000E+00  0.00000000E+00  0.00000000E+00
  0.00000000E+00  0.00000000E+00  0.00000000E+00
  0.00000000E+00  0.00000000E+00  0.00000000E+00
  0.00000000E+00  0.00000000E+00  0.00000000E+00
  0.00000000E+00  0.00000000E+00  0.00000000E+00
  0.00000000E+00  0.00000000E+00  0.00000000E+00
  0.00000000E+00  0.00000000E+00  0.00000000E+00
  0.00000000E+00  0.00000000E+00  0.00000000E+00
  0.00000000E+00  0.00000000E+00  0.00000000E+00
  0.00000000E+00  0.00000000E+00  0.00000000E+00
  0.00000000E+00  0.00000000E+00  0.00000000E+00
  0.00000000E+00  0.00000000E+00  0.00000000E+00
  0.00000000E+00  0.00000000E+00  0.00000000E+00
  0.00000000E+00  0.00000000E+00  0.00000000E+00
  0.00000000E+00  0.00000000E+00  0.00000000E+00
  0.00000000E+00  0.00000000E+00  0.00000000E+00
  0.00000000E+00  0.00000000E+00  0.00000000E+00
  0.00000000E+00  0.00000000E+00  0.00000000E+00
  0.00000000E+00  0.00000000E+00  0.00000000E+00
  0.00000000E+00  0.00000000E+00  0.00000000E+00
  0.00000000E+00  0.00000000E+00  0.00000000E+00
  0.00000000E+00  0.00000000E+00  0.00000000E+00
  0.00000000E+00  0.00000000E+00  0.00000000E+00
