SYSTEM =  Bulk

LCHARG = T
LWAVE  = T
ISTART = 1
ICHARG = 1
ISMEAR =  1
SIGMA  =  0.1
ENCUT  =  500
EDIFF  =  1E-5
NELM   =  150
NELMIN =  6
ISIF   =  2
ALGO   =  Normal 
LREAL  =  Auto
ISYM   =  0

IBRION =  2
POTIM  =  0.2
EDIFFG = -0.02
NSW    =  3 

LWAVE  =  .FALSE.
LCHARG =  .FALSE.
NPAR   =  4

