Generated POSCAR                        
   1.00000000000000     
     7.7532999999999994    0.0000000000000000    0.0000000000000000
     0.0000000000000000   11.8198000000000008    0.0000000000000000
     0.0000000000000000    0.0000000000000000   11.2307999999999986
   C    F    H    O 
     7     1     7     1
Direct
  0.5616554655396654  0.6249879043607184  0.6820613065182030
  0.5100166240216401  0.5344018321580594  0.5855098051631061
  0.5835222562116795  0.5313495029946602  0.4708742702081842
  0.4979863055638882  0.4479610371381983  0.3909791996046130
  0.3584734072186723  0.3824333482024746  0.4203915010938322
  0.3068863615956549  0.3796244788361952  0.5445715765338826
  0.3823268285909948  0.4556110253479726  0.6203764785645036
  0.5552555726423281  0.4434794958047595  0.2730484295726801
  0.6968367846567022  0.6103452663245129  0.7161685823219649
  0.5558897942929842  0.7102580730816551  0.6475196631329304
  0.4808264243549845  0.6160640448355694  0.7586854934401214
  0.7407977681360011  0.5968507995809190  0.3538203190856198
  0.3099617911078930  0.3301282350574505  0.3515862655443681
  0.2122409116313405  0.3158781064494328  0.5888010642743364
  0.3318402961421066  0.4666274069890103  0.7110387905017674
  0.7096043863630926  0.6094170772369532  0.4376316289581920
 
  0.20316232E-02 -0.62899716E-03  0.60302509E-02
  0.36642456E-02 -0.36254013E-02 -0.14092623E-02
 -0.16877100E-04 -0.11295514E-01 -0.35100775E-02
  0.15958341E-02  0.33606208E-02  0.10594126E-03
 -0.14784592E-01  0.57751132E-02  0.33141366E-02
  0.51980869E-02  0.14170434E-02 -0.47908902E-02
 -0.21105117E-02  0.31285058E-02 -0.18975840E-02
  0.77360296E-02  0.68491304E-02 -0.38338305E-02
 -0.23079889E-01  0.72144145E-02  0.64065364E-02
 -0.99067437E-02 -0.61466343E-02  0.11530045E-01
  0.16124291E-01 -0.50582540E-02  0.95521809E-02
 -0.14423773E-01 -0.40199874E-02 -0.12852689E-01
  0.13196885E-01 -0.22516771E-02 -0.19972512E-01
 -0.13328718E-01  0.10711966E-01 -0.21222780E-01
 -0.86499261E-02 -0.26482427E-01  0.22219894E-01
 -0.33616425E-02 -0.51026921E-02  0.64429996E-02
 
           1
   1.00000000000000     
 -0.22630740E+00  0.51003139E-02  0.78763218E-02 -0.23279572E+00
  0.56191750E+00  0.62493469E+00  0.68259825E+00
  0.51048923E+00  0.53409511E+00  0.58538432E+00
  0.58352008E+00  0.53039386E+00  0.47056173E+00
  0.49819213E+00  0.44824536E+00  0.39098863E+00
  0.35656653E+00  0.38292194E+00  0.42068659E+00
  0.30755680E+00  0.37974437E+00  0.54414499E+00
  0.38205462E+00  0.45587571E+00  0.62020752E+00
  0.55625335E+00  0.44405896E+00  0.27270706E+00
  0.69386000E+00  0.61095563E+00  0.71673903E+00
  0.55461205E+00  0.70973804E+00  0.64854631E+00
  0.48290609E+00  0.61563610E+00  0.75953603E+00
  0.73893743E+00  0.59651069E+00  0.35267590E+00
  0.31166389E+00  0.32993773E+00  0.34980790E+00
  0.21052181E+00  0.31678438E+00  0.58691137E+00
  0.33072465E+00  0.46438689E+00  0.71301727E+00
  0.70917081E+00  0.60898537E+00  0.43820532E+00
  0.00000000E+00  0.00000000E+00  0.00000000E+00
  0.00000000E+00  0.00000000E+00  0.00000000E+00
  0.00000000E+00  0.00000000E+00  0.00000000E+00
  0.00000000E+00  0.00000000E+00  0.00000000E+00
  0.00000000E+00  0.00000000E+00  0.00000000E+00
  0.00000000E+00  0.00000000E+00  0.00000000E+00
  0.00000000E+00  0.00000000E+00  0.00000000E+00
  0.00000000E+00  0.00000000E+00  0.00000000E+00
  0.00000000E+00  0.00000000E+00  0.00000000E+00
  0.00000000E+00  0.00000000E+00  0.00000000E+00
  0.00000000E+00  0.00000000E+00  0.00000000E+00
  0.00000000E+00  0.00000000E+00  0.00000000E+00
  0.00000000E+00  0.00000000E+00  0.00000000E+00
  0.00000000E+00  0.00000000E+00  0.00000000E+00
  0.00000000E+00  0.00000000E+00  0.00000000E+00
  0.00000000E+00  0.00000000E+00  0.00000000E+00
  0.00000000E+00  0.00000000E+00  0.00000000E+00
  0.00000000E+00  0.00000000E+00  0.00000000E+00
  0.00000000E+00  0.00000000E+00  0.00000000E+00
  0.00000000E+00  0.00000000E+00  0.00000000E+00
  0.00000000E+00  0.00000000E+00  0.00000000E+00
  0.00000000E+00  0.00000000E+00  0.00000000E+00
  0.00000000E+00  0.00000000E+00  0.00000000E+00
  0.00000000E+00  0.00000000E+00  0.00000000E+00
  0.00000000E+00  0.00000000E+00  0.00000000E+00
  0.00000000E+00  0.00000000E+00  0.00000000E+00
  0.00000000E+00  0.00000000E+00  0.00000000E+00
  0.00000000E+00  0.00000000E+00  0.00000000E+00
  0.00000000E+00  0.00000000E+00  0.00000000E+00
  0.00000000E+00  0.00000000E+00  0.00000000E+00
  0.00000000E+00  0.00000000E+00  0.00000000E+00
  0.00000000E+00  0.00000000E+00  0.00000000E+00
