Generated POSCAR                        
   1.00000000000000     
     7.7561000000000000    0.0000000000000000    0.0000000000000000
     0.0000000000000000   11.8361000000000001    0.0000000000000000
     0.0000000000000000    0.0000000000000000   11.2302000000000000
   C    F    H    O 
     7     1     7     1
Direct
  0.6073850518486906  0.7132565065212612  0.5219594260228898
  0.5262743095237220  0.5906328971341926  0.5258443927958569
  0.5013863507826974  0.5168385664668814  0.4373828878051139
  0.4475163582816408  0.4023001673485223  0.4509566176863676
  0.4575788574958606  0.3521742940237958  0.5605422018601611
  0.5088653226648993  0.4291240648078246  0.6471792308492805
  0.5269322600020697  0.5427508770964709  0.6363229849094739
  0.5766772605313902  0.5365031458138214  0.3206893951503667
  0.7296209673450282  0.7115937253606428  0.4741472118784341
  0.5316693250723588  0.7669697234970051  0.4647688171515031
  0.6201347394305580  0.7307627355033416  0.6155765509424463
  0.4086462328190276  0.3965300920563665  0.2848367019023787
  0.4424150516944025  0.2607790177128290  0.5703642285690216
  0.5302558446273515  0.4000872965668947  0.7323677772070994
  0.5054135952108757  0.5949497047445849  0.7215042355198716
  0.3901706652526544  0.3481362575905370  0.3530649179996838
 
 -0.73712934E-02 -0.16868459E-02 -0.36092195E-02
  0.11559793E-01 -0.11935476E-01  0.17535826E-02
  0.82242596E-02 -0.47461901E-02  0.22721729E-02
 -0.45640774E-03  0.24226611E-02  0.37543716E-02
 -0.52008057E-02  0.10965859E-01 -0.21283548E-02
 -0.20719639E-02  0.67402055E-02 -0.46758836E-02
  0.88731559E-02  0.56269155E-02  0.62687625E-02
 -0.13994275E-02 -0.14723510E-02 -0.15236424E-02
  0.14190855E-01 -0.28785605E-01  0.38815816E-01
  0.10662667E-01 -0.15777510E-01 -0.21267943E-01
  0.70593665E-03  0.47649688E-01  0.86719442E-02
  0.11239707E-02  0.94368958E-02  0.11349819E-01
 -0.11828556E-01 -0.15059208E-01 -0.31817376E-01
 -0.52224183E-01  0.23345044E-02 -0.25864946E-01
  0.49707312E-03 -0.31108094E-01 -0.28268391E-01
 -0.62107138E-02 -0.18403596E-02  0.21038790E-02
 
           1
   1.00000000000000     
 -0.92161959E+00  0.86800185E-02  0.55892463E-02 -0.92875422E+00
  0.60643467E+00  0.71311399E+00  0.52163804E+00
  0.52776472E+00  0.58962450E+00  0.52600054E+00
  0.50244671E+00  0.51643757E+00  0.43758521E+00
  0.44745751E+00  0.40250485E+00  0.45129093E+00
  0.45690831E+00  0.35310077E+00  0.56035268E+00
  0.50859818E+00  0.42969353E+00  0.64676286E+00
  0.52807628E+00  0.54322628E+00  0.63688119E+00
  0.57649683E+00  0.53637875E+00  0.32055372E+00
  0.73145061E+00  0.70916171E+00  0.47760359E+00
  0.53304407E+00  0.76563672E+00  0.46287500E+00
  0.62022576E+00  0.73478853E+00  0.61634875E+00
  0.40879115E+00  0.39732739E+00  0.28584735E+00
  0.44088999E+00  0.25950671E+00  0.56753103E+00
  0.52352254E+00  0.40028453E+00  0.73006462E+00
  0.50547768E+00  0.59232147E+00  0.71898706E+00
  0.38936991E+00  0.34798077E+00  0.35325226E+00
  0.00000000E+00  0.00000000E+00  0.00000000E+00
  0.00000000E+00  0.00000000E+00  0.00000000E+00
  0.00000000E+00  0.00000000E+00  0.00000000E+00
  0.00000000E+00  0.00000000E+00  0.00000000E+00
  0.00000000E+00  0.00000000E+00  0.00000000E+00
  0.00000000E+00  0.00000000E+00  0.00000000E+00
  0.00000000E+00  0.00000000E+00  0.00000000E+00
  0.00000000E+00  0.00000000E+00  0.00000000E+00
  0.00000000E+00  0.00000000E+00  0.00000000E+00
  0.00000000E+00  0.00000000E+00  0.00000000E+00
  0.00000000E+00  0.00000000E+00  0.00000000E+00
  0.00000000E+00  0.00000000E+00  0.00000000E+00
  0.00000000E+00  0.00000000E+00  0.00000000E+00
  0.00000000E+00  0.00000000E+00  0.00000000E+00
  0.00000000E+00  0.00000000E+00  0.00000000E+00
  0.00000000E+00  0.00000000E+00  0.00000000E+00
  0.00000000E+00  0.00000000E+00  0.00000000E+00
  0.00000000E+00  0.00000000E+00  0.00000000E+00
  0.00000000E+00  0.00000000E+00  0.00000000E+00
  0.00000000E+00  0.00000000E+00  0.00000000E+00
  0.00000000E+00  0.00000000E+00  0.00000000E+00
  0.00000000E+00  0.00000000E+00  0.00000000E+00
  0.00000000E+00  0.00000000E+00  0.00000000E+00
  0.00000000E+00  0.00000000E+00  0.00000000E+00
  0.00000000E+00  0.00000000E+00  0.00000000E+00
  0.00000000E+00  0.00000000E+00  0.00000000E+00
  0.00000000E+00  0.00000000E+00  0.00000000E+00
  0.00000000E+00  0.00000000E+00  0.00000000E+00
  0.00000000E+00  0.00000000E+00  0.00000000E+00
  0.00000000E+00  0.00000000E+00  0.00000000E+00
  0.00000000E+00  0.00000000E+00  0.00000000E+00
  0.00000000E+00  0.00000000E+00  0.00000000E+00
