Generated POSCAR
1.0
 7.753299999999999 0.0 0.0
 0.0 11.8198 0.0
 0.0 0.0 11.230799999999999
C F H O
7 1 7 1
Cartesian
 3.8582 8.4137 6.1059
 3.8729999999999998 6.9079 6.1059
 3.9385 6.2199 4.8896
 3.9520999999999997 4.8265 4.8883
 3.9031 4.0817 6.0507
 3.8377 4.7626 7.2646999999999995
 3.8234 6.1553 7.281499999999999
 4.0165 4.223800000000001 3.6798
 4.753299999999999 8.8198 5.6224
 3.0 8.8025 5.5471
 3.8103 8.8027 7.1257
 4.0297 6.2798 3.0
 3.9164 3.0 5.991
 3.7982 4.2054 8.1935
 3.7725 6.6792 8.2308
 3.9882 6.9188 3.722
