Generated by VASPKIT code
 1.000000
   10.8312997818000003    0.0000000000000000    0.0000000000000000
   -5.4156498909000002    9.3801807670000006    0.0000000000000000
    0.0000000000000000    0.0000000000000000   25.6702995300000012
   Ru   N    H 
    80     1     3
Selective Dynamics
Direct
    0.0833299980000000    0.1666699950000000    0.2831299900000000    F  F  F    Ru001
    0.0833299980000000    0.1666699950000000    0.4494000080000000    T  T  T    Ru002
    0.1666699950000000    0.0833299980000000    0.2000000030000000    F  F  F    Ru003
    0.1666699950000000    0.0833299980000000    0.3662700060000000    T  T  T    Ru004
    0.1666699950000000    0.0833299980000000    0.5325300100000000    T  T  T    Ru005
    0.3333300050000000    0.1666699950000000    0.2831299900000000    F  F  F    Ru006
    0.3333300050000000    0.1666699950000000    0.4494000080000000    T  T  T    Ru007
    0.4166699950000000    0.0833299980000000    0.2000000030000000    F  F  F    Ru008
    0.4166699950000000    0.0833299980000000    0.3662700060000000    T  T  T    Ru009
    0.4166699950000000    0.0833299980000000    0.5325300100000000    T  T  T    Ru010
    0.5833299760000000    0.1666699950000000    0.2831299900000000    F  F  F    Ru011
    0.5833299760000000    0.1666699950000000    0.4494000080000000    T  T  T    Ru012
    0.6666700240000000    0.0833299980000000    0.2000000030000000    F  F  F    Ru013
    0.6666700240000000    0.0833299980000000    0.3662700060000000    T  T  T    Ru014
    0.6666700240000000    0.0833299980000000    0.5325300100000000    T  T  T    Ru015
    0.8333299760000000    0.1666699950000000    0.2831299900000000    F  F  F    Ru016
    0.8333299760000000    0.1666699950000000    0.4494000080000000    T  T  T    Ru017
    0.9166700240000000    0.0833299980000000    0.2000000030000000    F  F  F    Ru018
    0.9166700240000000    0.0833299980000000    0.3662700060000000    T  T  T    Ru019
    0.9166700240000000    0.0833299980000000    0.5325300100000000    T  T  T    Ru020
    0.0833299980000000    0.4166699950000000    0.2831299900000000    F  F  F    Ru021
    0.0833299980000000    0.4166699950000000    0.4494000080000000    T  T  T    Ru022
    0.1666699950000000    0.3333300050000000    0.2000000030000000    F  F  F    Ru023
    0.1666699950000000    0.3333300050000000    0.3662700060000000    T  T  T    Ru024
    0.1666699950000000    0.3333300050000000    0.5325300100000000    T  T  T    Ru025
    0.3333300050000000    0.4166699950000000    0.2831299900000000    F  F  F    Ru026
    0.3333300050000000    0.4166699950000000    0.4494000080000000    T  T  T    Ru027
    0.4166699950000000    0.3333300050000000    0.2000000030000000    F  F  F    Ru028
    0.4166699950000000    0.3333300050000000    0.3662700060000000    T  T  T    Ru029
    0.4166699950000000    0.3333300050000000    0.5325300100000000    T  T  T    Ru030
    0.5833299760000000    0.4166699950000000    0.2831299900000000    F  F  F    Ru031
    0.5833299760000000    0.4166699950000000    0.4494000080000000    T  T  T    Ru032
    0.6666700240000000    0.3333300050000000    0.2000000030000000    F  F  F    Ru033
    0.6666700240000000    0.3333300050000000    0.3662700060000000    T  T  T    Ru034
    0.6666700240000000    0.3333300050000000    0.5325300100000000    T  T  T    Ru035
    0.8333299760000000    0.4166699950000000    0.2831299900000000    F  F  F    Ru036
    0.8333299760000000    0.4166699950000000    0.4494000080000000    T  T  T    Ru037
    0.9166700240000000    0.3333300050000000    0.2000000030000000    F  F  F    Ru038
    0.9166700240000000    0.3333300050000000    0.3662700060000000    T  T  T    Ru039
    0.9166700240000000    0.3333300050000000    0.5325300100000000    T  T  T    Ru040
    0.0833299980000000    0.6666700240000000    0.2831299900000000    F  F  F    Ru041
    0.0833299980000000    0.6666700240000000    0.4494000080000000    T  T  T    Ru042
    0.1666699950000000    0.5833299760000000    0.2000000030000000    F  F  F    Ru043
    0.1666699950000000    0.5833299760000000    0.3662700060000000    T  T  T    Ru044
    0.1666699950000000    0.5833299760000000    0.5325300100000000    T  T  T    Ru045
    0.3333300050000000    0.6666700240000000    0.2831299900000000    F  F  F    Ru046
    0.3333300050000000    0.6666700240000000    0.4494000080000000    T  T  T    Ru047
    0.4166699950000000    0.5833299760000000    0.2000000030000000    F  F  F    Ru048
    0.4166699950000000    0.5833299760000000    0.3662700060000000    T  T  T    Ru049
    0.4166699950000000    0.5833299760000000    0.5325300100000000    T  T  T    Ru050
    0.5833299760000000    0.6666700240000000    0.2831299900000000    F  F  F    Ru051
    0.5833299760000000    0.6666700240000000    0.4494000080000000    T  T  T    Ru052
    0.6666700240000000    0.5833299760000000    0.2000000030000000    F  F  F    Ru053
    0.6666700240000000    0.5833299760000000    0.3662700060000000    T  T  T    Ru054
    0.6666700240000000    0.5833299760000000    0.5325300100000000    T  T  T    Ru055
    0.8333299760000000    0.6666700240000000    0.2831299900000000    F  F  F    Ru056
    0.8333299760000000    0.6666700240000000    0.4494000080000000    T  T  T    Ru057
    0.9166700240000000    0.5833299760000000    0.2000000030000000    F  F  F    Ru058
    0.9166700240000000    0.5833299760000000    0.3662700060000000    T  T  T    Ru059
    0.9166700240000000    0.5833299760000000    0.5325300100000000    T  T  T    Ru060
    0.0833299980000000    0.9166700240000000    0.2831299900000000    F  F  F    Ru061
    0.0833299980000000    0.9166700240000000    0.4494000080000000    T  T  T    Ru062
    0.1666699950000000    0.8333299760000000    0.2000000030000000    F  F  F    Ru063
    0.1666699950000000    0.8333299760000000    0.3662700060000000    T  T  T    Ru064
    0.1666699950000000    0.8333299760000000    0.5325300100000000    T  T  T    Ru065
    0.3333300050000000    0.9166700240000000    0.2831299900000000    F  F  F    Ru066
    0.3333300050000000    0.9166700240000000    0.4494000080000000    T  T  T    Ru067
    0.4166699950000000    0.8333299760000000    0.2000000030000000    F  F  F    Ru068
    0.4166699950000000    0.8333299760000000    0.3662700060000000    T  T  T    Ru069
    0.4166699950000000    0.8333299760000000    0.5325300100000000    T  T  T    Ru070
    0.5833299760000000    0.9166700240000000    0.2831299900000000    F  F  F    Ru071
    0.5833299760000000    0.9166700240000000    0.4494000080000000    T  T  T    Ru072
    0.6666700240000000    0.8333299760000000    0.2000000030000000    F  F  F    Ru073
    0.6666700240000000    0.8333299760000000    0.3662700060000000    T  T  T    Ru074
    0.6666700240000000    0.8333299760000000    0.5325300100000000    T  T  T    Ru075
    0.8333299760000000    0.9166700240000000    0.2831299900000000    F  F  F    Ru076
    0.8333299760000000    0.9166700240000000    0.4494000080000000    T  T  T    Ru077
    0.9166700240000000    0.8333299760000000    0.2000000030000000    F  F  F    Ru078
    0.9166700240000000    0.8333299760000000    0.3662700060000000    T  T  T    Ru079
    0.9166700240000000    0.8333299760000000    0.5325300100000000    T  T  T    Ru080
    0.4219299850000000    0.3391300140000000    0.6072099800000000    T  T  T     N001
    0.3713699880000000    0.3994100090000000    0.6222100260000000    T  T  T     H001
    0.7193599999999999    0.4905399940000000    0.5848099900000000    T  T  T     H002
    0.3332499860000000    0.2389599980000000    0.6234800220000000    T  T  T     H003
