Generated POSCAR                        
   1.00000000000000     
     7.7532999999999994    0.0000000000000000    0.0000000000000000
     0.0000000000000000   11.8198000000000008    0.0000000000000000
     0.0000000000000000    0.0000000000000000   11.2307999999999986
   C    F    H    O 
     7     1     7     1
Direct
  0.5664735090413875  0.6181191434647844  0.6828598490088390
  0.5144028021372081  0.5321728365219619  0.5930483300656583
  0.5766546332934905  0.5226115808056327  0.4725402256752889
  0.4972182423250481  0.4534804352934786  0.3870921301387624
  0.3558899433775721  0.3898334653481710  0.4177453725930763
  0.3067347569078731  0.3822644956407432  0.5363716265451051
  0.3816763087548602  0.4589943386772186  0.6198697283968860
  0.5683215918918607  0.4533421253513861  0.2731820286957232
  0.6980670469576095  0.6171214542670631  0.7045077160462380
  0.5411808916226042  0.7048576188758732  0.6513074987518759
  0.4772494453944235  0.6044171597691088  0.7584865360114951
  0.7203110570669154  0.6002474480959546  0.3598717961428616
  0.2796057144729864  0.3282590095428387  0.3595094867368280
  0.1964121809919983  0.3336136408778873  0.5531188018977669
  0.3453317770993437  0.4499986745753826  0.7156882487936578
  0.6998438892038756  0.5973526091612805  0.4429748843682675
 
  0.35354856E-02 -0.81361483E-02 -0.45039365E-02
 -0.77497874E-03 -0.45523905E-02  0.59535878E-02
 -0.56900161E-02  0.32250627E-02  0.12145980E-01
 -0.52112924E-02  0.61267651E-03 -0.84629612E-02
  0.11994785E-01  0.39733151E-02 -0.12003892E-01
 -0.71726232E-02  0.81121403E-02 -0.29060774E-02
 -0.10559426E-02 -0.55414815E-02  0.14938079E-02
  0.57874468E-02  0.95139393E-02  0.45177235E-02
  0.19450293E-01 -0.46814524E-03 -0.10196393E-01
 -0.71635582E-02  0.77776559E-03 -0.15270243E-01
  0.65477808E-03 -0.16226232E-01  0.11925894E-01
 -0.16254112E-02  0.29360096E-02  0.84535860E-03
 -0.19738566E-01  0.19039642E-01  0.57159915E-02
  0.17719915E-01  0.19018846E-01  0.36899748E-02
  0.78833584E-02  0.20086710E-01 -0.16501144E-01
 -0.46617262E-02 -0.12387696E-01  0.20909918E-02
 
           1
   1.00000000000000     
 -0.40037192E+00 -0.19397195E-01 -0.20202488E-01 -0.38057208E+00
  0.56692951E+00  0.61743079E+00  0.68245881E+00
  0.51430285E+00  0.53178769E+00  0.59357844E+00
  0.57592075E+00  0.52288443E+00  0.47362171E+00
  0.49654610E+00  0.45353227E+00  0.38633858E+00
  0.35743700E+00  0.39016962E+00  0.41667654E+00
  0.30580965E+00  0.38295081E+00  0.53611287E+00
  0.38154012E+00  0.45852551E+00  0.62000274E+00
  0.56906804E+00  0.45414704E+00  0.27358429E+00
  0.70057569E+00  0.61708185E+00  0.70359982E+00
  0.54025695E+00  0.70492342E+00  0.64994782E+00
  0.47733390E+00  0.60304436E+00  0.75954843E+00
  0.72010142E+00  0.60049585E+00  0.35994707E+00
  0.27705989E+00  0.32986984E+00  0.36001844E+00
  0.19869765E+00  0.33522271E+00  0.55344736E+00
  0.34634855E+00  0.45169809E+00  0.71421897E+00
  0.69924263E+00  0.59630456E+00  0.44316107E+00
  0.00000000E+00  0.00000000E+00  0.00000000E+00
  0.00000000E+00  0.00000000E+00  0.00000000E+00
  0.00000000E+00  0.00000000E+00  0.00000000E+00
  0.00000000E+00  0.00000000E+00  0.00000000E+00
  0.00000000E+00  0.00000000E+00  0.00000000E+00
  0.00000000E+00  0.00000000E+00  0.00000000E+00
  0.00000000E+00  0.00000000E+00  0.00000000E+00
  0.00000000E+00  0.00000000E+00  0.00000000E+00
  0.00000000E+00  0.00000000E+00  0.00000000E+00
  0.00000000E+00  0.00000000E+00  0.00000000E+00
  0.00000000E+00  0.00000000E+00  0.00000000E+00
  0.00000000E+00  0.00000000E+00  0.00000000E+00
  0.00000000E+00  0.00000000E+00  0.00000000E+00
  0.00000000E+00  0.00000000E+00  0.00000000E+00
  0.00000000E+00  0.00000000E+00  0.00000000E+00
  0.00000000E+00  0.00000000E+00  0.00000000E+00
  0.00000000E+00  0.00000000E+00  0.00000000E+00
  0.00000000E+00  0.00000000E+00  0.00000000E+00
  0.00000000E+00  0.00000000E+00  0.00000000E+00
  0.00000000E+00  0.00000000E+00  0.00000000E+00
  0.00000000E+00  0.00000000E+00  0.00000000E+00
  0.00000000E+00  0.00000000E+00  0.00000000E+00
  0.00000000E+00  0.00000000E+00  0.00000000E+00
  0.00000000E+00  0.00000000E+00  0.00000000E+00
  0.00000000E+00  0.00000000E+00  0.00000000E+00
  0.00000000E+00  0.00000000E+00  0.00000000E+00
  0.00000000E+00  0.00000000E+00  0.00000000E+00
  0.00000000E+00  0.00000000E+00  0.00000000E+00
  0.00000000E+00  0.00000000E+00  0.00000000E+00
  0.00000000E+00  0.00000000E+00  0.00000000E+00
  0.00000000E+00  0.00000000E+00  0.00000000E+00
  0.00000000E+00  0.00000000E+00  0.00000000E+00
