Generated POSCAR                        
   1.00000000000000     
     7.7532999999999994    0.0000000000000000    0.0000000000000000
     0.0000000000000000   11.8198000000000008    0.0000000000000000
     0.0000000000000000    0.0000000000000000   11.2307999999999986
   C    F    H    O 
     7     1     7     1
Direct
  0.4976662828437868  0.7121241779564005  0.5437780214380978
  0.4995999197270252  0.5850182484788816  0.5438202625104107
  0.5080093011195962  0.5265826221026084  0.4351142117839265
  0.5094816870150990  0.4084225144772049  0.4356056164249944
  0.5032363182608911  0.3447740920377089  0.5389600099349705
  0.4951987132322429  0.4028137299641291  0.6473869430660724
  0.4933228530080572  0.5210693659478912  0.6488201541028116
  0.5177290068414354  0.3562328524087154  0.3258930302928897
  0.6136922010895312  0.7463839928613095  0.5004290910887415
  0.3864150478480003  0.7448971545356775  0.4936955087144544
  0.4914258119870645  0.7449098295647687  0.6351016774270867
  0.5198511211721456  0.5311124803393934  0.2657764524326612
  0.5051096764240327  0.2527335258249225  0.5336826113725521
  0.4898620593513902  0.3553215167281077  0.7305784274471506
  0.4865246926667806  0.5656496438695501  0.7339469324866075
  0.5144360621883055  0.5861570312915280  0.3304409315864749
 
