Generated POSCAR                        
   1.00000000000000     
     7.7591000000000001    0.0000000000000000    0.0000000000000000
     0.0000000000000000   11.7333999999999996    0.0000000000000000
     0.0000000000000000    0.0000000000000000   11.3168000000000006
   C    F    H    N 
     6     1     7     2
Direct
  0.4998994413091020  0.7105497844311455  0.5438909579333966
  0.4999165373330442  0.5827019477743622  0.5460752503566024
  0.4998397077126085  0.5192903752612321  0.4425450202206208
  0.5002526146523216  0.4000527753180255  0.4414865087037484
  0.5015321933707266  0.3477182162189360  0.5535716412599414
  0.5004302909368519  0.5191233478082321  0.6512254043875343
  0.5010781971978546  0.5742745423305126  0.3354270568426932
  0.6139158413229041  0.7438091830054274  0.4975114006888418
  0.3861018423637667  0.7437008611372429  0.4971914849886293
  0.4996298078504107  0.7445489624195392  0.6342320426253385
  0.5334296718169984  0.3832953588287236  0.2639672084643166
  0.5414922537077713  0.2592653594844454  0.3399212066269425
  0.5024270401458107  0.2543385822769990  0.5588922453119834
  0.5002097985588634  0.5640092474783399  0.7360535149430109
  0.4931515382893290  0.3395345996283440  0.3362548142392310
  0.5016632586161286  0.4049454295611407  0.6555712224722021
 
  0.00000000E+00  0.00000000E+00  0.00000000E+00
  0.00000000E+00  0.00000000E+00  0.00000000E+00
  0.00000000E+00  0.00000000E+00  0.00000000E+00
  0.00000000E+00  0.00000000E+00  0.00000000E+00
  0.00000000E+00  0.00000000E+00  0.00000000E+00
  0.00000000E+00  0.00000000E+00  0.00000000E+00
  0.00000000E+00  0.00000000E+00  0.00000000E+00
  0.00000000E+00  0.00000000E+00  0.00000000E+00
  0.00000000E+00  0.00000000E+00  0.00000000E+00
  0.00000000E+00  0.00000000E+00  0.00000000E+00
  0.00000000E+00  0.00000000E+00  0.00000000E+00
  0.00000000E+00  0.00000000E+00  0.00000000E+00
  0.00000000E+00  0.00000000E+00  0.00000000E+00
  0.00000000E+00  0.00000000E+00  0.00000000E+00
  0.00000000E+00  0.00000000E+00  0.00000000E+00
  0.00000000E+00  0.00000000E+00  0.00000000E+00
