Ru N  H  C  O                           
   1.00000000000000     
    10.8312997818000003    0.0000000000000000    0.0000000000000000
    -5.4156498909000002    9.3801807670000006    0.0000000000000000
     0.0000000000000000    0.0000000000000000   25.6086006164999986
   Ru   N    H    C    O 
    64     1     7     3     2
Selective dynamics
Direct
  0.1549816616970503  0.0779090621193035  0.3754406327174138   F   F   F
  0.1562531905143132  0.3312672951940101  0.3758311171251520   F   F   F
  0.1563075336079578  0.5801885546470089  0.3754547943435966   F   F   F
  0.1535017619799675  0.8297866642307881  0.3750553955350142   F   F   F
  0.4052736993534083  0.0802711092445776  0.3752504106885439   F   F   F
  0.4062601866811448  0.3294715660383929  0.3756033071052656   F   F   F
  0.4046718721403622  0.5805334820941610  0.3756895944601482   F   F   F
  0.4060561364563640  0.8286466122739498  0.3753253043450400   F   F   F
  0.6529246279634293  0.0777093038349363  0.3755818172812653   F   F   F
  0.6527225838739241  0.3296019686182490  0.3759334006905917   F   F   F
  0.6547297140461481  0.5787817354040001  0.3761410202605120   F   F   F
  0.6523084787377655  0.8283224102070506  0.3757422065120579   F   F   F
  0.9044357019005247  0.0794289516543216  0.3762319199392579   F   F   F
  0.9053101641113201  0.3295974396238677  0.3762960970697833   F   F   F
  0.9042921348141775  0.5812095211675015  0.3755366480986879   F   F   F
  0.9058026812828643  0.8280718626164543  0.3755029679370523   F   F   F
  0.0711549005988914  0.1624108110834825  0.4552049398863005   F   F   F
  0.0705070573855764  0.4120985687476448  0.4553250368265580   F   F   F
  0.0703485401703077  0.6617166111209016  0.4558189987843519   F   F   F
  0.0718954997666685  0.9135737725362532  0.4554092689411462   F   F   F
  0.3216598579837324  0.1635299819409610  0.4558526798740843   F   F   F
  0.3221575888023551  0.4132219361680498  0.4563047933366775   F   F   F
  0.3223704842969610  0.6624807474895178  0.4560236581870782   F   F   F
  0.3214522761178955  0.9127899347109079  0.4555685875070878   F   F   F
  0.5725223503036290  0.1643443952867969  0.4560645631983959   F   F   F
  0.5709227573856158  0.4122095738698008  0.4555920099041297   T   T   T
  0.5710822444393094  0.6626686408360727  0.4556443876705042   T   T   T
  0.5721454522416423  0.9121604465688833  0.4560228954996575   F   F   F
  0.8214296212079049  0.1627674508637611  0.4548712869166351   F   F   F
  0.8207273770714707  0.4127994122427125  0.4559468055191971   F   F   F
  0.8205187336422100  0.6614138477423168  0.4562196032823920   F   F   F
  0.8202842493495481  0.9122174226679931  0.4557527645844459   F   F   F
  0.1552580722726425  0.0794268044713982  0.5407014238047008   T   T   T
  0.1547689605673742  0.3289531136569618  0.5408919848239189   T   T   T
  0.1554234546030785  0.5797912975897680  0.5409331761413744   T   T   T
  0.1555946410128762  0.8297828344648696  0.5404132088230414   T   T   T
  0.4044264263776536  0.0790901674673092  0.5406816195496902   T   T   T
  0.4050957238093083  0.3292940203030944  0.5414594791062557   T   T   T
  0.4034036822788243  0.5786834939377982  0.5412699163383777   T   T   T
  0.4046713207705365  0.8289839667821327  0.5410807780208442   T   T   T
  0.6540681573565255  0.0786819838632941  0.5411925773179745   T   T   T
  0.6540981680252815  0.3291117315057056  0.5414939679524382   T   T   T
  0.6548113897827563  0.5787764988919430  0.5413260352853978   T   T   T
  0.6549156958383968  0.8301767820627988  0.5411461825766355   T   T   T
  0.9043599423461869  0.0790618564566220  0.5406494814093474   T   T   T
  0.9040901584348742  0.3289505776168655  0.5407846427785743   T   T   T
  0.9052448274745809  0.5789796988132331  0.5408014107974691   T   T   T
  0.9050900715339641  0.8301468757115730  0.5405966076879594   T   T   T
  0.0720888312302394  0.1610493975272854  0.6204867448797379   T   T   T
  0.0706874603809892  0.4129946625611362  0.6205161016243949   T   T   T
  0.0724166918251861  0.6621852053231699  0.6208986733797136   T   T   T
  0.0715178037301250  0.9144214522995877  0.6204592073355416   T   T   T
  0.3177622235636200  0.1600259813677374  0.6209825973746197   T   T   T
  0.3158925154953279  0.4085044706564920  0.6206016674280609   T   T   T
  0.3185061150799248  0.6625073622524834  0.6210425042221936   T   T   T
  0.3222393592289525  0.9127607312542966  0.6212644826329068   T   T   T
  0.5716218607187327  0.1590194292558197  0.6210704164262787   T   T   T
  0.5722116493749747  0.4117717604581221  0.6240297320012120   T   T   T
  0.5709327967650168  0.6631087092447827  0.6221059771719294   T   T   T
  0.5708221688432658  0.9162614805970077  0.6206962871910755   T   T   T
  0.8199458640841060  0.1629124326724881  0.6206743583355694   T   T   T
  0.8237158188484517  0.4114217199308988  0.6205652935408084   T   T   T
  0.8260385278712220  0.6664171382089414  0.6198356168441156   T   T   T
  0.8250068387202844  0.9146458357444820  0.6207144678486773   T   T   T
  0.5393203352546863  0.6542411425962509  0.7087199717903797   T   T   T
  0.5259782946898744  0.7387048910432632  0.7201494764762544   T   T   T
  0.4408051253199395  0.5691865676054707  0.7176597849588545   T   T   T
  0.7474195453864215  0.7495138179707541  0.7425318185357528   T   T   T
  0.5668105626125395  0.6881653776610588  0.8175442351935919   T   T   T
  0.4987525810367280  0.5034965917669276  0.8036366763852857   T   T   T
  0.6756137911833895  0.6083215662959122  0.8250175592415738   T   T   T
  0.8104386338224527  0.4782129084335253  0.7167963076152293   T   T   T
  0.6446273336328205  0.6474093958039526  0.7444429267004932   T   T   T
  0.5928311457190578  0.6110554598852060  0.8012965029972793   T   T   T
  0.6736969732732255  0.5279215614404829  0.7273399665247964   T   T   T
  0.8036067496877385  0.5553256819921011  0.7373003101737627   T   T   T
  0.5803088277233749  0.4134525901557285  0.7097727153470978   T   T   T
 
  0.00000000E+00  0.00000000E+00  0.00000000E+00
  0.00000000E+00  0.00000000E+00  0.00000000E+00
  0.00000000E+00  0.00000000E+00  0.00000000E+00
  0.00000000E+00  0.00000000E+00  0.00000000E+00
  0.00000000E+00  0.00000000E+00  0.00000000E+00
  0.00000000E+00  0.00000000E+00  0.00000000E+00
  0.00000000E+00  0.00000000E+00  0.00000000E+00
  0.00000000E+00  0.00000000E+00  0.00000000E+00
  0.00000000E+00  0.00000000E+00  0.00000000E+00
  0.00000000E+00  0.00000000E+00  0.00000000E+00
  0.00000000E+00  0.00000000E+00  0.00000000E+00
  0.00000000E+00  0.00000000E+00  0.00000000E+00
  0.00000000E+00  0.00000000E+00  0.00000000E+00
  0.00000000E+00  0.00000000E+00  0.00000000E+00
  0.00000000E+00  0.00000000E+00  0.00000000E+00
  0.00000000E+00  0.00000000E+00  0.00000000E+00
  0.00000000E+00  0.00000000E+00  0.00000000E+00
  0.00000000E+00  0.00000000E+00  0.00000000E+00
  0.00000000E+00  0.00000000E+00  0.00000000E+00
  0.00000000E+00  0.00000000E+00  0.00000000E+00
  0.00000000E+00  0.00000000E+00  0.00000000E+00
  0.00000000E+00  0.00000000E+00  0.00000000E+00
  0.00000000E+00  0.00000000E+00  0.00000000E+00
  0.00000000E+00  0.00000000E+00  0.00000000E+00
  0.00000000E+00  0.00000000E+00  0.00000000E+00
  0.00000000E+00  0.00000000E+00  0.00000000E+00
  0.00000000E+00  0.00000000E+00  0.00000000E+00
  0.00000000E+00  0.00000000E+00  0.00000000E+00
  0.00000000E+00  0.00000000E+00  0.00000000E+00
  0.00000000E+00  0.00000000E+00  0.00000000E+00
  0.00000000E+00  0.00000000E+00  0.00000000E+00
  0.00000000E+00  0.00000000E+00  0.00000000E+00
  0.00000000E+00  0.00000000E+00  0.00000000E+00
  0.00000000E+00  0.00000000E+00  0.00000000E+00
  0.00000000E+00  0.00000000E+00  0.00000000E+00
  0.00000000E+00  0.00000000E+00  0.00000000E+00
  0.00000000E+00  0.00000000E+00  0.00000000E+00
  0.00000000E+00  0.00000000E+00  0.00000000E+00
  0.00000000E+00  0.00000000E+00  0.00000000E+00
  0.00000000E+00  0.00000000E+00  0.00000000E+00
  0.00000000E+00  0.00000000E+00  0.00000000E+00
  0.00000000E+00  0.00000000E+00  0.00000000E+00
  0.00000000E+00  0.00000000E+00  0.00000000E+00
  0.00000000E+00  0.00000000E+00  0.00000000E+00
  0.00000000E+00  0.00000000E+00  0.00000000E+00
  0.00000000E+00  0.00000000E+00  0.00000000E+00
  0.00000000E+00  0.00000000E+00  0.00000000E+00
  0.00000000E+00  0.00000000E+00  0.00000000E+00
  0.00000000E+00  0.00000000E+00  0.00000000E+00
  0.00000000E+00  0.00000000E+00  0.00000000E+00
  0.00000000E+00  0.00000000E+00  0.00000000E+00
  0.00000000E+00  0.00000000E+00  0.00000000E+00
  0.00000000E+00  0.00000000E+00  0.00000000E+00
  0.00000000E+00  0.00000000E+00  0.00000000E+00
  0.00000000E+00  0.00000000E+00  0.00000000E+00
  0.00000000E+00  0.00000000E+00  0.00000000E+00
  0.00000000E+00  0.00000000E+00  0.00000000E+00
  0.00000000E+00  0.00000000E+00  0.00000000E+00
  0.00000000E+00  0.00000000E+00  0.00000000E+00
  0.00000000E+00  0.00000000E+00  0.00000000E+00
  0.00000000E+00  0.00000000E+00  0.00000000E+00
  0.00000000E+00  0.00000000E+00  0.00000000E+00
  0.00000000E+00  0.00000000E+00  0.00000000E+00
  0.00000000E+00  0.00000000E+00  0.00000000E+00
  0.00000000E+00  0.00000000E+00  0.00000000E+00
  0.00000000E+00  0.00000000E+00  0.00000000E+00
  0.00000000E+00  0.00000000E+00  0.00000000E+00
  0.00000000E+00  0.00000000E+00  0.00000000E+00
  0.00000000E+00  0.00000000E+00  0.00000000E+00
  0.00000000E+00  0.00000000E+00  0.00000000E+00
  0.00000000E+00  0.00000000E+00  0.00000000E+00
  0.00000000E+00  0.00000000E+00  0.00000000E+00
  0.00000000E+00  0.00000000E+00  0.00000000E+00
  0.00000000E+00  0.00000000E+00  0.00000000E+00
  0.00000000E+00  0.00000000E+00  0.00000000E+00
  0.00000000E+00  0.00000000E+00  0.00000000E+00
  0.00000000E+00  0.00000000E+00  0.00000000E+00
