Ru N  H  C  O 
 1.0000000000000000
    10.8312997818000003    0.0000000000000000    0.0000000000000000
    -5.4156498909000002    9.3801807670000006    0.0000000000000000
     0.0000000000000000    0.0000000000000000   25.6086006164999986
 Ru  N   H   C   O  
  64   1   7   3   2
Selective dynamics
Cartesian
  1.2567246347557339  0.7308010860664709  9.6145092184663508   F   F   F
 -0.1016025427529005  3.1073471111149340  9.6245089777111108   F   F   F
 -1.4490843280139001  5.4422735215334104  9.6148718778952933   F   F   F
 -2.8312104565722009  7.7835489085307037  9.6046438333196331   F   F   F
  3.9549207073530024  0.7529575150817625  9.6096378985005337   F   F   F
  2.6160232206830210  3.0905028470266696  9.6186750818952991   F   F   F
  1.2391562714474651  5.4455090033391578  9.6208847803046993   F   F   F
 -0.0895441931577254  7.7728550150918005  9.6115558202385092   F   F   F
  6.6511759975565079  0.7289273172494457  9.6181247575751847   F   F   F
  5.2848251149016967  3.0917260467982457  9.6271283166880472   F   F   F
  3.9570945666904422  5.4290773027274781  9.6324451633343600   F   F   F
  2.5794445129507819  7.7698139410992857  9.6222321013297787   F   F   F
  9.3660548272862947  0.7450579246508150  9.6347729769035269   F   F   F
  8.0207014450603378  3.0916835640122446  9.6364164634077607   F   F   F
  6.6470319225954482  5.4518503720526974  9.6169680380184328   F   F   F
  5.3264730916967800  7.7674637594087361  9.6161055362102967   F   F   F
 -0.1088600319944982  1.5234427664781409 11.6571615042062522   F   F   F
 -1.4680984936024777  3.8655590686748602 11.6602370187845370   F   F   F
 -2.8216593650270614  6.2070214288407000 11.6728866932813151   F   F   F
 -4.1688739906299412  8.5694871303801978 11.6623940853661399   F   F   F
  2.5983732207355765  1.5339407914304561 11.6737492188565639   F   F   F
  1.2515200877741828  3.8760964581460442 11.6853272119534743   F   F   F
 -0.0960724316405234  6.2141891661089472 11.6781277341882443   F   F   F
 -1.4616047421568292  8.5621345898864174 11.6664740108921308   F   F   F
  5.3111295015143041  1.5415801358334758 11.6791752542863332   F   F   F
  3.9505855522181132  3.8688348740279861 11.6563558883221621   T   T   T
  2.5976982050453432  6.2163091994190909 11.6559114146615261   T   T   T
  1.2571372890786559  8.5562298773235952 11.6781082028307299   F   F   F
  8.0156589494408141  1.5267881120858480 11.6486171185615781   F   F   F
  6.6539671683156980  3.8721331073479859 11.6761596449101930   F   F   F
  5.3052985482962667  6.2041814536199302 11.6831456138768957   F   F   F
  3.9444944254447525  8.5567643234326507 11.6711905281089070   F   F   F
  1.2508399974972839  0.7443433062078596 13.8479411838694908   T   T   T
 -0.1085305722199298  3.0831400993137779 13.8529290347483851   T   T   T
 -1.4563237862461809  5.4385828669951888 13.8557166074792271   T   T   T
 -2.8069781552076809  7.7853629533738795 13.8450822137282632   T   T   T
  3.9522756362120552  0.7401748213738050 13.8528752481038104   T   T   T
  2.5987781952236664  3.0837766532293140 13.8733947219735487   T   T   T
  1.2278315966225475  5.4254242147801133 13.8676253612319229   T   T   T
 -0.1077076137361453  7.7770965413123587 13.8659928033502595   T   T   T
  6.6592234220194193  0.7374957318319785 13.8598608997894353   T   T   T
  5.3047500582593363  3.0780812035163270 13.8716702232720515   T   T   T
  3.9609777731744913  5.4343002048889089 13.8593457555509794   T   T   T
  2.5938723841953570  7.7906520808702675 13.8606696976789916   T   T   T
  9.3677965476763330  0.7435970304586128 13.8522235032942724   T   T   T
  8.0161493975139848  3.0825015227789070 13.8541721554425905   T   T   T
  6.6692530624534365  5.4363824317852973 13.8578888053284963   T   T   T
  5.3100509144855037  7.7878711754257841 13.8480316946786459   T   T   T
 -0.0970176198462865  1.5148009263851083 15.8845349475212210   T   T   T
 -1.4718149465680406  3.8670375874815690 15.8885819993016018   T   T   T
 -2.8042080929379463  6.2146036053863796 15.8954244065737935   T   T   T
 -4.1727288019519744  8.5748782206443916 15.8865452902352953   T   T   T
  2.5814183765823553  1.5063425861084476 15.8970174994510902   T   T   T
  1.2189945903740280  3.8347713596231463 15.8877822957977806   T   T   T
 -0.1285244267161363  6.2143419968030296 15.9011062458379389   T   T   T
 -1.4591858183322370  8.5636115600691127 15.8941858418808479   T   T   T
  5.3233027548170666  1.5011893000023611 15.9002806996903008   T   T   T
  3.9679465730252885  3.8675076075673638 16.0015240419603870   T   T   T
  2.5998442682128564  6.2181925613096700 15.9243635806495583   T   T   T
  1.2298242102160089  8.5882109480957478 15.8976878697663846   T   T   T
  8.0060899794389133  1.5282522269683931 15.8906303313582420   T   T   T
  6.6834232916834271  3.8619995413692894 15.8910377617927292   T   T   T
  5.3331609495642915  6.2412512550808295 15.8638674593355375   T   T   T
  3.9758256181771983  8.5778296690542781 15.8915183324800999   T   T   T
  2.2781671984569751  6.1457029591172363 18.1118280231027740   T   T   T
  1.6903657835963635  6.9222056610822262 18.4479851097228149   T   T   T
  1.6882316863249271  5.3426941163220025 18.3882351685170384   T   T   T
  4.0333891217390851  7.0257104405240272 19.0173606132225324   T   T   T
  2.4071794209287232  6.4578460516156788 20.9397883542387682   T   T   T
  2.6779312150260774  4.7219023988336577 20.5836755369236428   T   T   T
  4.0258791908180802  5.7024983984198645 21.1267908601371950   T   T   T
  6.1749140232981681  4.4916538263472736 18.3581475163703196   T   T   T
  3.5144769586133457  6.0711238201994435 19.0722362724397634   T   T   T
  3.1167300934182203  5.7275161699483315 20.5031868556141283   T   T   T
  4.4071637757552660  4.9726080429389290 18.6522231368990319   T   T   T
  5.7151689432949162  5.2028415668554953 18.8730764521827403   T   T   T
  4.0575609936557226  3.8623708170525184 18.1623895882283399   T   T   T
