Generated POSCAR                        
   1.00000000000000     
     7.7576000000000001    0.0000000000000000    0.0000000000000000
     0.0000000000000000   11.7061999999999991    0.0000000000000000
     0.0000000000000000    0.0000000000000000   11.3290000000000006
   C    F    H    N 
     6     1     7     2
Direct
  0.5105498481056796  0.7127026978406126  0.4907443472443241
  0.4480180927533682  0.5840948489256098  0.5192406064078635
  0.5414574715064777  0.5075904845648416  0.4537159313135957
  0.5331079459904350  0.3917629875881500  0.4643572954306709
  0.3298079675459880  0.4226673003618713  0.6130542300991187
  0.3266899797438426  0.5423474582683723  0.5989638356696259
  0.6527652058871276  0.5546199334961707  0.3738350994747886
  0.4251404950365621  0.7853566147929482  0.5370447751721860
  0.6446584017755050  0.7014093607804385  0.5247710006746614
  0.5065071548477796  0.7421536756456977  0.4040998754463552
  0.7280322433397688  0.3676885517072069  0.3629487133730802
  0.6828555502259079  0.2491903773635419  0.4449744226917226
  0.2339809539275043  0.3991713158538879  0.6731914052510202
  0.2669234217351045  0.6024004771051936  0.6570074855111858
  0.6363382971063496  0.3158628410036750  0.3970831252855545
  0.4193618954343430  0.3460872086010730  0.5457495465251615
 
  0.80661281E-03 -0.16033062E-02 -0.34796108E-02
  0.38569383E-02 -0.41749649E-02  0.37342388E-02
  0.40076577E-02  0.32126403E-02  0.40099171E-02
  0.34584049E-02  0.25020193E-03 -0.82509439E-03
 -0.87564538E-02  0.23994368E-02 -0.80164837E-02
 -0.16219010E-02 -0.59208035E-02 -0.42693354E-02
 -0.14822752E-02 -0.67640331E-03  0.26538665E-02
  0.26222344E-01 -0.42617544E-02  0.51904061E-02
  0.13884157E-01  0.11584719E-01 -0.21723703E-01
 -0.24663817E-01  0.16751029E-01 -0.35433405E-01
 -0.10263006E-01  0.35545466E-02  0.15983473E-01
 -0.17342325E-01  0.18188380E-02  0.13105510E-01
 -0.52380969E-02  0.14246339E-01  0.81500375E-02
  0.10451757E-01 -0.11054808E-01 -0.22536627E-01
 -0.32920838E-02  0.40464968E-02  0.15958010E-01
  0.42973606E-02 -0.45267131E-03 -0.93084933E-02
 
           1
   1.00000000000000     
 -0.56873259E+00 -0.17940441E-01 -0.15497051E-01 -0.55201384E+00
  0.51065383E+00  0.71256574E+00  0.49043721E+00
  0.44851527E+00  0.58373820E+00  0.51957022E+00
  0.54197408E+00  0.50786492E+00  0.45406988E+00
  0.53355375E+00  0.39178436E+00  0.46428447E+00
  0.32867921E+00  0.42287227E+00  0.61234662E+00
  0.32648091E+00  0.54184167E+00  0.59858699E+00
  0.65257413E+00  0.55456215E+00  0.37406935E+00
  0.42852071E+00  0.78499256E+00  0.53750293E+00
  0.64644815E+00  0.70239898E+00  0.52285347E+00
  0.50332784E+00  0.74358463E+00  0.40097220E+00
  0.72670928E+00  0.36799220E+00  0.36435956E+00
  0.68062002E+00  0.24934575E+00  0.44613123E+00
  0.23330573E+00  0.40038831E+00  0.67391080E+00
  0.26827071E+00  0.60145612E+00  0.65501820E+00
  0.63591393E+00  0.31620851E+00  0.39849172E+00
  0.41991585E+00  0.34604854E+00  0.54492789E+00
  0.00000000E+00  0.00000000E+00  0.00000000E+00
  0.00000000E+00  0.00000000E+00  0.00000000E+00
  0.00000000E+00  0.00000000E+00  0.00000000E+00
  0.00000000E+00  0.00000000E+00  0.00000000E+00
  0.00000000E+00  0.00000000E+00  0.00000000E+00
  0.00000000E+00  0.00000000E+00  0.00000000E+00
  0.00000000E+00  0.00000000E+00  0.00000000E+00
  0.00000000E+00  0.00000000E+00  0.00000000E+00
  0.00000000E+00  0.00000000E+00  0.00000000E+00
  0.00000000E+00  0.00000000E+00  0.00000000E+00
  0.00000000E+00  0.00000000E+00  0.00000000E+00
  0.00000000E+00  0.00000000E+00  0.00000000E+00
  0.00000000E+00  0.00000000E+00  0.00000000E+00
  0.00000000E+00  0.00000000E+00  0.00000000E+00
  0.00000000E+00  0.00000000E+00  0.00000000E+00
  0.00000000E+00  0.00000000E+00  0.00000000E+00
  0.00000000E+00  0.00000000E+00  0.00000000E+00
  0.00000000E+00  0.00000000E+00  0.00000000E+00
  0.00000000E+00  0.00000000E+00  0.00000000E+00
  0.00000000E+00  0.00000000E+00  0.00000000E+00
  0.00000000E+00  0.00000000E+00  0.00000000E+00
  0.00000000E+00  0.00000000E+00  0.00000000E+00
  0.00000000E+00  0.00000000E+00  0.00000000E+00
  0.00000000E+00  0.00000000E+00  0.00000000E+00
  0.00000000E+00  0.00000000E+00  0.00000000E+00
  0.00000000E+00  0.00000000E+00  0.00000000E+00
  0.00000000E+00  0.00000000E+00  0.00000000E+00
  0.00000000E+00  0.00000000E+00  0.00000000E+00
  0.00000000E+00  0.00000000E+00  0.00000000E+00
  0.00000000E+00  0.00000000E+00  0.00000000E+00
  0.00000000E+00  0.00000000E+00  0.00000000E+00
  0.00000000E+00  0.00000000E+00  0.00000000E+00
