Generated POSCAR                        
   1.00000000000000     
     7.7576000000000001    0.0000000000000000    0.0000000000000000
     0.0000000000000000   11.7061999999999991    0.0000000000000000
     0.0000000000000000    0.0000000000000000   11.3290000000000006
   C    F    H    N 
     6     1     7     2
Direct
  0.4999342660857463  0.7090804060520007  0.5430491734138434
  0.4995136776967650  0.5808349427564090  0.5456939094149905
  0.4990678939782048  0.5179705382258647  0.4422994459936274
  0.4991107036978885  0.3978440051016466  0.4415173215525383
  0.5006072714326130  0.3978978267049161  0.6443334032858720
  0.4996735039711596  0.5166744205185666  0.6508065133094803
  0.5001678611489876  0.5734829798847556  0.3350520904062055
  0.6137866293020802  0.7416252660477889  0.4959556944102874
  0.3861836681952413  0.7419175166581943  0.4960814877423508
  0.5001626982963452  0.7439962852924511  0.6329036323087595
  0.5339017397071938  0.3800612230488465  0.2637449702465297
  0.5279711669546873  0.2551956423744580  0.3435792599437522
  0.5018671037594525  0.3467272915982014  0.7250865187362999
  0.4998476952314740  0.5599143315790429  0.7361825574555269
  0.4921091847068415  0.3382755439479327  0.3367015328189562
  0.5007896867892402  0.3387009908836052  0.5428797323187302
 
