Generated POSCAR
1.0
 7.7576 0.0 0.0
 0.0 11.706199999999999 0.0
 0.0 0.0 11.329
C F H N
6 1 7 2
Cartesian
 3.8785 8.2965 6.150399999999999
 3.8755 6.7923 6.1804
 3.872 6.0642 5.007999999999999
 3.8716 4.6614 5.006799999999999
 3.884 4.6625 7.2936
 3.8761 6.0466999999999995 7.368399999999999
 3.88 6.6986 3.8162999999999996
 4.7576 8.6795 5.6216
 3.0 8.6826 5.622999999999999
 3.8802 8.706199999999999 7.1625
 4.1442 4.4488 2.9999999999999996
 4.0969 3.0 3.8948999999999994
 3.893 4.0663 8.2026
 3.8779 6.5492 8.329
 3.8116 3.9645 3.8185999999999996
 3.886 3.9715 6.1483
