Ru  N  H  C  O                          
   1.00000000000000     
    10.8312997818000003    0.0000000000000000    0.0000000000000000
    -5.4156498909000002    9.3801807670000006    0.0000000000000000
     0.0000000000000000    0.0000000000000000   25.6086006164999986
   Ru   N    H    C    O 
    64     1     7     3     2
Direct
  0.1549816616970487  0.0779090621193005  0.3754406327174153
  0.1562531905143156  0.3312672951940068  0.3758311171251544
  0.1563075336079613  0.5801885546470098  0.3754547943435960
  0.1535017619799667  0.8297866642307857  0.3750553955350149
  0.4052736993534067  0.0802711092445797  0.3752504106885443
  0.4062601866811416  0.3294715660383893  0.3756033071052639
  0.4046718721403608  0.5805334820941578  0.3756895944601448
  0.4060561364563615  0.8286466122739488  0.3753253043450427
  0.6529246279634262  0.0777093038349381  0.3755818172812647
  0.6527225838739223  0.3296019686182499  0.3759334006905925
  0.6547297140461484  0.5787817354039994  0.3761410202605149
  0.6523084787377641  0.8283224102070532  0.3757422065120588
  0.9044357019005269  0.0794289516543189  0.3762319199392606
  0.9053101641113194  0.3295974396238674  0.3762960970697819
  0.9042921348141797  0.5812095211675037  0.3755366480986891
  0.9058026812828643  0.8280718626164548  0.3755029679370492
  0.0711549005988881  0.1624108110834812  0.4552049398863041
  0.0705070573855748  0.4120985687476421  0.4553250368265603
  0.0703485401703045  0.6617166111209016  0.4558189987843499
  0.0718954997666688  0.9135737725362535  0.4554092689411497
  0.3216598579837323  0.1635299819409606  0.4558526798740809
  0.3221575888023557  0.4132219361680500  0.4563047933366748
  0.3223704842969604  0.6624807474895166  0.4560236581870801
  0.3214522761178980  0.9127899347109051  0.4555685875070912
  0.5725223503036255  0.1643443952867988  0.4560645631983994
  0.5719811319826102  0.4127908667022542  0.4564522615356743
  0.5711346542131072  0.6621343261101638  0.4566878976270807
  0.5721454522416400  0.9121604465688860  0.4560228954996609
  0.8214296212079014  0.1627674508637588  0.4548712869166386
  0.8207273770714720  0.4127994122427114  0.4559468055192001
  0.8205187336422103  0.6614138477423150  0.4562196032823938
  0.8202842493495509  0.9122174226679965  0.4557527645844493
  0.1552400345593611  0.0797005056667075  0.5407216952122754
  0.1561031579986308  0.3298264072363073  0.5408339845242788
  0.1553260431138156  0.5795497071590231  0.5410161981995114
  0.1553627764067419  0.8297172979976640  0.5402747886059744
  0.4043794378900767  0.0791003506239253  0.5406135460499274
  0.4056988528347711  0.3296000504260660  0.5414101272864951
  0.4049072903360825  0.5792185770154133  0.5417175800733851
  0.4046957505324609  0.8290148691004723  0.5407631636505997
  0.6535557009287974  0.0784325066284403  0.5415838037292514
  0.6554226367109489  0.3306864816940087  0.5414774760588817
  0.6540425122890885  0.5780213057183013  0.5428506515907671
  0.6557626840869868  0.8297597484227123  0.5415595923984075
  0.9041610998584727  0.0781355341454677  0.5402179944651809
  0.9030760870677524  0.3302540469042595  0.5405144663280060
  0.9043513999829632  0.5772192010438572  0.5407086242880953
  0.9042181583252792  0.8296402146884158  0.5409223261673514
  0.0737813694620930  0.1604251150167735  0.6209405290117834
  0.0739353850557708  0.4165114871214584  0.6209192741745994
  0.0728455634012290  0.6614301310249586  0.6214762878103711
  0.0681278965712685  0.9136468212884855  0.6209847510176965
  0.3153044196490229  0.1592174824668886  0.6214090494503753
  0.3101530506584664  0.4056766808463623  0.6210376911423711
  0.3142028001487614  0.6619416035760303  0.6213911582411534
  0.3249880980793285  0.9122201484812256  0.6228424565306186
  0.5721100346318863  0.1554346108899225  0.6213947667428306
  0.5694189937657516  0.4079273378237367  0.6225835330970600
  0.5707176461396147  0.6638053392300608  0.6233871094252317
  0.5701725346272385  0.9196833680089274  0.6206071402325263
  0.8168164593551798  0.1618078996508568  0.6210292219178237
  0.8265912706340721  0.4095218501337145  0.6207582904992153
  0.8308751830830495  0.6716056120923293  0.6211353944925886
  0.8281560159195394  0.9156250810698704  0.6213583566415597
  0.5386248054482500  0.6533622844518404  0.7098555443427664
  0.5318192781285705  0.7402810623966775  0.7185453337863869
  0.4398041618661467  0.5662882513066073  0.7156679017922807
  0.7444753718507676  0.7484286962093205  0.7423356415369842
  0.5672653236501586  0.6888844835695122  0.8176142949000412
  0.4971815451651742  0.5031902038896744  0.8043799454317804
  0.6773946083031817  0.6106138112927167  0.8253572809461699
  0.8203292695340222  0.4847447241014936  0.7165839974187486
  0.6431406049099438  0.6448711110586726  0.7450445921627552
  0.5929489049838274  0.6104572726703562  0.8019267224361898
  0.6723415448478202  0.5284081358088343  0.7262903734254743
  0.8042969079470712  0.5560260121929183  0.7345749921799277
  0.5726954219652991  0.4112786519075826  0.7096996309681226
 
  0.00000000E+00  0.00000000E+00  0.00000000E+00
  0.00000000E+00  0.00000000E+00  0.00000000E+00
  0.00000000E+00  0.00000000E+00  0.00000000E+00
  0.00000000E+00  0.00000000E+00  0.00000000E+00
  0.00000000E+00  0.00000000E+00  0.00000000E+00
  0.00000000E+00  0.00000000E+00  0.00000000E+00
  0.00000000E+00  0.00000000E+00  0.00000000E+00
  0.00000000E+00  0.00000000E+00  0.00000000E+00
  0.00000000E+00  0.00000000E+00  0.00000000E+00
  0.00000000E+00  0.00000000E+00  0.00000000E+00
  0.00000000E+00  0.00000000E+00  0.00000000E+00
  0.00000000E+00  0.00000000E+00  0.00000000E+00
  0.00000000E+00  0.00000000E+00  0.00000000E+00
  0.00000000E+00  0.00000000E+00  0.00000000E+00
  0.00000000E+00  0.00000000E+00  0.00000000E+00
  0.00000000E+00  0.00000000E+00  0.00000000E+00
  0.00000000E+00  0.00000000E+00  0.00000000E+00
  0.00000000E+00  0.00000000E+00  0.00000000E+00
  0.00000000E+00  0.00000000E+00  0.00000000E+00
  0.00000000E+00  0.00000000E+00  0.00000000E+00
  0.00000000E+00  0.00000000E+00  0.00000000E+00
  0.00000000E+00  0.00000000E+00  0.00000000E+00
  0.00000000E+00  0.00000000E+00  0.00000000E+00
  0.00000000E+00  0.00000000E+00  0.00000000E+00
  0.00000000E+00  0.00000000E+00  0.00000000E+00
  0.00000000E+00  0.00000000E+00  0.00000000E+00
  0.00000000E+00  0.00000000E+00  0.00000000E+00
  0.00000000E+00  0.00000000E+00  0.00000000E+00
  0.00000000E+00  0.00000000E+00  0.00000000E+00
  0.00000000E+00  0.00000000E+00  0.00000000E+00
  0.00000000E+00  0.00000000E+00  0.00000000E+00
  0.00000000E+00  0.00000000E+00  0.00000000E+00
  0.00000000E+00  0.00000000E+00  0.00000000E+00
  0.00000000E+00  0.00000000E+00  0.00000000E+00
  0.00000000E+00  0.00000000E+00  0.00000000E+00
  0.00000000E+00  0.00000000E+00  0.00000000E+00
  0.00000000E+00  0.00000000E+00  0.00000000E+00
  0.00000000E+00  0.00000000E+00  0.00000000E+00
  0.00000000E+00  0.00000000E+00  0.00000000E+00
  0.00000000E+00  0.00000000E+00  0.00000000E+00
  0.00000000E+00  0.00000000E+00  0.00000000E+00
  0.00000000E+00  0.00000000E+00  0.00000000E+00
  0.00000000E+00  0.00000000E+00  0.00000000E+00
  0.00000000E+00  0.00000000E+00  0.00000000E+00
  0.00000000E+00  0.00000000E+00  0.00000000E+00
  0.00000000E+00  0.00000000E+00  0.00000000E+00
  0.00000000E+00  0.00000000E+00  0.00000000E+00
  0.00000000E+00  0.00000000E+00  0.00000000E+00
  0.00000000E+00  0.00000000E+00  0.00000000E+00
  0.00000000E+00  0.00000000E+00  0.00000000E+00
  0.00000000E+00  0.00000000E+00  0.00000000E+00
  0.00000000E+00  0.00000000E+00  0.00000000E+00
  0.00000000E+00  0.00000000E+00  0.00000000E+00
  0.00000000E+00  0.00000000E+00  0.00000000E+00
  0.00000000E+00  0.00000000E+00  0.00000000E+00
  0.00000000E+00  0.00000000E+00  0.00000000E+00
  0.00000000E+00  0.00000000E+00  0.00000000E+00
  0.00000000E+00  0.00000000E+00  0.00000000E+00
  0.00000000E+00  0.00000000E+00  0.00000000E+00
  0.00000000E+00  0.00000000E+00  0.00000000E+00
  0.00000000E+00  0.00000000E+00  0.00000000E+00
  0.00000000E+00  0.00000000E+00  0.00000000E+00
  0.00000000E+00  0.00000000E+00  0.00000000E+00
  0.00000000E+00  0.00000000E+00  0.00000000E+00
  0.00000000E+00  0.00000000E+00  0.00000000E+00
  0.00000000E+00  0.00000000E+00  0.00000000E+00
  0.00000000E+00  0.00000000E+00  0.00000000E+00
  0.00000000E+00  0.00000000E+00  0.00000000E+00
  0.00000000E+00  0.00000000E+00  0.00000000E+00
  0.00000000E+00  0.00000000E+00  0.00000000E+00
  0.00000000E+00  0.00000000E+00  0.00000000E+00
  0.00000000E+00  0.00000000E+00  0.00000000E+00
  0.00000000E+00  0.00000000E+00  0.00000000E+00
  0.00000000E+00  0.00000000E+00  0.00000000E+00
  0.00000000E+00  0.00000000E+00  0.00000000E+00
  0.00000000E+00  0.00000000E+00  0.00000000E+00
  0.00000000E+00  0.00000000E+00  0.00000000E+00
