Generated POSCAR                        
   1.00000000000000     
     7.7454999999999998    0.0000000000000000    0.0000000000000000
     0.0000000000000000   11.7561000000000000    0.0000000000000000
     0.0000000000000000    0.0000000000000000   11.1799999999999997
   C    F    H    N 
     5     1     6     3
Direct
  0.5075490728119504  0.7092981663941874  0.5506095367681768
  0.5031836677120739  0.5819092926103590  0.5482361191871622
  0.5164588588207338  0.5203622953397041  0.4432397255948547
  0.5117535567298239  0.4006757903412767  0.4452886548381605
  0.4823169134150790  0.4121768475958211  0.6477647955635847
  0.5354413813233297  0.5730940259636798  0.3340609166314317
  0.5250293416836380  0.7453108434280883  0.4609987112041122
  0.3866375454178042  0.7416823924520991  0.5892685641321347
  0.6132289189111308  0.7378784083353164  0.6089679933481629
  0.5628736505841749  0.3772113753550361  0.2671989976890097
  0.5425656501335256  0.2541584863334029  0.3521950714510537
  0.4687948875202039  0.3672462205611161  0.7329413168491022
  0.5199690971104003  0.3385376053338712  0.3424722545985259
  0.4949197118030456  0.3463233777342619  0.5503941974863430
  0.4852586381540201  0.5255092225590551  0.6535098351769547
 
  0.00000000E+00  0.00000000E+00  0.00000000E+00
  0.00000000E+00  0.00000000E+00  0.00000000E+00
  0.00000000E+00  0.00000000E+00  0.00000000E+00
  0.00000000E+00  0.00000000E+00  0.00000000E+00
  0.00000000E+00  0.00000000E+00  0.00000000E+00
  0.00000000E+00  0.00000000E+00  0.00000000E+00
  0.00000000E+00  0.00000000E+00  0.00000000E+00
  0.00000000E+00  0.00000000E+00  0.00000000E+00
  0.00000000E+00  0.00000000E+00  0.00000000E+00
  0.00000000E+00  0.00000000E+00  0.00000000E+00
  0.00000000E+00  0.00000000E+00  0.00000000E+00
  0.00000000E+00  0.00000000E+00  0.00000000E+00
  0.00000000E+00  0.00000000E+00  0.00000000E+00
  0.00000000E+00  0.00000000E+00  0.00000000E+00
  0.00000000E+00  0.00000000E+00  0.00000000E+00
