Generated POSCAR                        
   1.00000000000000     
     7.7454999999999998    0.0000000000000000    0.0000000000000000
     0.0000000000000000   11.7561000000000000    0.0000000000000000
     0.0000000000000000    0.0000000000000000   11.1799999999999997
   C    F    H    N 
     5     1     6     3
Direct
  0.7128031567121009  0.6489705021233051  0.3989210321543160
  0.5793661853628352  0.5806928089816756  0.4613007648347560
  0.5596105640010057  0.4656909858593253  0.4597540016981298
  0.4330458664260420  0.4095476033179333  0.5241493410748356
  0.3587618732902288  0.5739420124648720  0.6021760857740535
  0.6606372754763506  0.4030870794157884  0.3832654649984822
  0.7747909074407383  0.6048965532952801  0.3279789622230284
  0.6521062146144292  0.7276232960628916  0.3665593072215375
  0.8216975333871660  0.6727090948318467  0.4617745193338264
  0.4936963135858410  0.2495219760205371  0.4699340512926948
  0.3005920255130272  0.2667191970342376  0.5575760588984561
  0.2882123423258117  0.6200107032322311  0.6695345041694284
  0.4155233817573583  0.2960912599216710  0.5252419801545696
  0.3202815021496284  0.4692865752198571  0.5890218773768767
  0.4729569880797204  0.6348460948046727  0.5386443726143143
 
  0.59381127E-02 -0.67031191E-02  0.59781056E-02
  0.71095572E-05 -0.67894659E-03 -0.62335126E-02
 -0.78664395E-02 -0.70554373E-02  0.12943921E-02
  0.40744629E-03 -0.26930254E-02  0.30918631E-02
 -0.14545936E-02  0.60434830E-02 -0.40643513E-02
  0.98697454E-03  0.58386340E-03  0.15174983E-02
  0.16280783E-01 -0.12594340E-01 -0.81930929E-03
  0.11592130E-01 -0.26051478E-01  0.58144051E-02
 -0.31865687E-02 -0.10493373E-01 -0.28874913E-01
 -0.27543508E-01 -0.10807826E-01  0.46576774E-01
  0.29822134E-01  0.27562465E-01  0.14429296E-01
 -0.19216620E-01 -0.75641535E-02 -0.61410618E-02
  0.12506821E-02  0.40046349E-02  0.78729922E-02
 -0.37516687E-02  0.45813992E-02 -0.78359702E-03
  0.31548065E-02  0.29862087E-02 -0.11418609E-01
 
           1
   1.00000000000000     
 -0.17288741E+00 -0.12992515E-01 -0.11576361E-01 -0.16060297E+00
  0.71356981E+00  0.64840032E+00  0.39945575E+00
  0.57936710E+00  0.58063506E+00  0.46074321E+00
  0.55859495E+00  0.46509083E+00  0.45986978E+00
  0.43309847E+00  0.40931853E+00  0.52442589E+00
  0.35857407E+00  0.57445608E+00  0.60181255E+00
  0.66076470E+00  0.40313674E+00  0.38340120E+00
  0.77689287E+00  0.60382525E+00  0.32790568E+00
  0.65360284E+00  0.72540730E+00  0.36707938E+00
  0.82128612E+00  0.67181651E+00  0.45919179E+00
  0.49014025E+00  0.24860264E+00  0.47410013E+00
  0.30444228E+00  0.26906372E+00  0.55886669E+00
  0.28573134E+00  0.61936728E+00  0.66898521E+00
  0.41568485E+00  0.29643190E+00  0.52594618E+00
  0.31979713E+00  0.46967628E+00  0.58895179E+00
  0.47336430E+00  0.63510011E+00  0.53762303E+00
  0.00000000E+00  0.00000000E+00  0.00000000E+00
  0.00000000E+00  0.00000000E+00  0.00000000E+00
  0.00000000E+00  0.00000000E+00  0.00000000E+00
  0.00000000E+00  0.00000000E+00  0.00000000E+00
  0.00000000E+00  0.00000000E+00  0.00000000E+00
  0.00000000E+00  0.00000000E+00  0.00000000E+00
  0.00000000E+00  0.00000000E+00  0.00000000E+00
  0.00000000E+00  0.00000000E+00  0.00000000E+00
  0.00000000E+00  0.00000000E+00  0.00000000E+00
  0.00000000E+00  0.00000000E+00  0.00000000E+00
  0.00000000E+00  0.00000000E+00  0.00000000E+00
  0.00000000E+00  0.00000000E+00  0.00000000E+00
  0.00000000E+00  0.00000000E+00  0.00000000E+00
  0.00000000E+00  0.00000000E+00  0.00000000E+00
  0.00000000E+00  0.00000000E+00  0.00000000E+00
  0.00000000E+00  0.00000000E+00  0.00000000E+00
  0.00000000E+00  0.00000000E+00  0.00000000E+00
  0.00000000E+00  0.00000000E+00  0.00000000E+00
  0.00000000E+00  0.00000000E+00  0.00000000E+00
  0.00000000E+00  0.00000000E+00  0.00000000E+00
  0.00000000E+00  0.00000000E+00  0.00000000E+00
  0.00000000E+00  0.00000000E+00  0.00000000E+00
  0.00000000E+00  0.00000000E+00  0.00000000E+00
  0.00000000E+00  0.00000000E+00  0.00000000E+00
  0.00000000E+00  0.00000000E+00  0.00000000E+00
  0.00000000E+00  0.00000000E+00  0.00000000E+00
  0.00000000E+00  0.00000000E+00  0.00000000E+00
  0.00000000E+00  0.00000000E+00  0.00000000E+00
  0.00000000E+00  0.00000000E+00  0.00000000E+00
  0.00000000E+00  0.00000000E+00  0.00000000E+00
