Generated POSCAR                        
   1.00000000000000     
     7.7454999999999998    0.0000000000000000    0.0000000000000000
     0.0000000000000000   11.7561000000000000    0.0000000000000000
     0.0000000000000000    0.0000000000000000   11.1799999999999997
   C    F    H    N 
     5     1     6     3
Direct
  0.6969635793406934  0.6609533419484847  0.3980054707582257
  0.5786375769727186  0.5869247870273717  0.4705689081384596
  0.5642927181847887  0.4664690648817104  0.4578761048542946
  0.4322275747598385  0.4044029996043441  0.5175706869891494
  0.3540042142338737  0.5749337987016659  0.6109910231007695
  0.6646922780855887  0.4004753331282085  0.3788006415761932
  0.7556372336423740  0.6130067956958684  0.3203683601266324
  0.6327303055593664  0.7361790714316438  0.3665234729044856
  0.8085982768710551  0.6873821153087750  0.4457329920537337
  0.4717320396934118  0.2512670369105517  0.4311479213268654
  0.3034810268000147  0.2590882470852466  0.5271198899661643
  0.2624296336231571  0.6150039675088699  0.6731672257465675
  0.4212607558698738  0.2877397862580692  0.5041406001780052
  0.3259886506693334  0.4612367785472121  0.5981584834326397
  0.4778817069671219  0.6406000791353730  0.5555725645825501
 
  0.69992104E-02 -0.75275879E-02 -0.37261538E-02
 -0.84257031E-03 -0.86116934E-04 -0.23846088E-02
  0.79785000E-02  0.34128372E-03 -0.30831890E-02
 -0.22853217E-02  0.40877514E-02  0.27271644E-02
  0.46336915E-02  0.66894584E-02 -0.55194571E-02
 -0.36798599E-02  0.63778245E-03  0.36455449E-02
  0.16501741E-01 -0.11930713E-01 -0.13243111E-01
  0.16545344E-01  0.14530220E-01 -0.45525729E-02
  0.13599961E-02 -0.11063686E-01  0.38912722E-01
 -0.88694888E-02  0.74070995E-02  0.45952037E-01
  0.23543087E-01 -0.12919978E-01 -0.75465211E-02
  0.11297294E-01  0.14752247E-01  0.10911276E-01
 -0.47088704E-02  0.41882168E-02  0.16689097E-01
 -0.54383491E-02 -0.21163760E-02 -0.63846587E-02
 -0.33126357E-02 -0.59992601E-02 -0.99991106E-02
 
           1
   1.00000000000000     
 -0.21923087E+00  0.10135407E-01  0.96081882E-02 -0.22910266E+00
  0.69786723E+00  0.66031303E+00  0.39767218E+00
  0.57852880E+00  0.58691746E+00  0.47035562E+00
  0.56532280E+00  0.46649810E+00  0.45760033E+00
  0.43193252E+00  0.40475071E+00  0.51781462E+00
  0.35460246E+00  0.57550282E+00  0.61049733E+00
  0.66421718E+00  0.40052958E+00  0.37912672E+00
  0.75776773E+00  0.61199194E+00  0.31918382E+00
  0.63486643E+00  0.73741504E+00  0.36611627E+00
  0.80877386E+00  0.68644101E+00  0.44921356E+00
  0.47058692E+00  0.25189710E+00  0.43525812E+00
  0.30652061E+00  0.25798925E+00  0.52644489E+00
  0.26388820E+00  0.61625883E+00  0.67414319E+00
  0.42065281E+00  0.28809605E+00  0.50563336E+00
  0.32528652E+00  0.46105675E+00  0.59758740E+00
  0.47745402E+00  0.64008977E+00  0.55467819E+00
  0.00000000E+00  0.00000000E+00  0.00000000E+00
  0.00000000E+00  0.00000000E+00  0.00000000E+00
  0.00000000E+00  0.00000000E+00  0.00000000E+00
  0.00000000E+00  0.00000000E+00  0.00000000E+00
  0.00000000E+00  0.00000000E+00  0.00000000E+00
  0.00000000E+00  0.00000000E+00  0.00000000E+00
  0.00000000E+00  0.00000000E+00  0.00000000E+00
  0.00000000E+00  0.00000000E+00  0.00000000E+00
  0.00000000E+00  0.00000000E+00  0.00000000E+00
  0.00000000E+00  0.00000000E+00  0.00000000E+00
  0.00000000E+00  0.00000000E+00  0.00000000E+00
  0.00000000E+00  0.00000000E+00  0.00000000E+00
  0.00000000E+00  0.00000000E+00  0.00000000E+00
  0.00000000E+00  0.00000000E+00  0.00000000E+00
  0.00000000E+00  0.00000000E+00  0.00000000E+00
  0.00000000E+00  0.00000000E+00  0.00000000E+00
  0.00000000E+00  0.00000000E+00  0.00000000E+00
  0.00000000E+00  0.00000000E+00  0.00000000E+00
  0.00000000E+00  0.00000000E+00  0.00000000E+00
  0.00000000E+00  0.00000000E+00  0.00000000E+00
  0.00000000E+00  0.00000000E+00  0.00000000E+00
  0.00000000E+00  0.00000000E+00  0.00000000E+00
  0.00000000E+00  0.00000000E+00  0.00000000E+00
  0.00000000E+00  0.00000000E+00  0.00000000E+00
  0.00000000E+00  0.00000000E+00  0.00000000E+00
  0.00000000E+00  0.00000000E+00  0.00000000E+00
  0.00000000E+00  0.00000000E+00  0.00000000E+00
  0.00000000E+00  0.00000000E+00  0.00000000E+00
  0.00000000E+00  0.00000000E+00  0.00000000E+00
  0.00000000E+00  0.00000000E+00  0.00000000E+00
