Generated POSCAR                        
   1.00000000000000     
     7.7561000000000000    0.0000000000000000    0.0000000000000000
     0.0000000000000000   11.8361000000000001    0.0000000000000000
     0.0000000000000000    0.0000000000000000   11.2302000000000000
   C    F    H    O 
     7     1     7     1
Direct
  0.4976281780393247  0.7111866010906306  0.5376101855263666
  0.5006046461558302  0.5843835826092073  0.5424731932058799
  0.5092517654994664  0.5211392016382921  0.4383154121121611
  0.5126115759352076  0.4031334126907729  0.4353805312912805
  0.5067585834560585  0.3444852724352516  0.5431573202108775
  0.4979076705632564  0.4051578731851267  0.6495032243706047
  0.4949433025035495  0.5232185689747776  0.6494743328754066
  0.5155338554213429  0.5753169291782557  0.3292821199528799
  0.6137102291713156  0.7444573043737066  0.4935841999611130
  0.3862972009006377  0.7419284219096416  0.4862863221570852
  0.4906504629515496  0.7467934628088696  0.6276574815701372
  0.5242789571483975  0.4016031867064487  0.2659939165873522
  0.5092866337384248  0.2523830108586444  0.5414415016973184
  0.4933577121051244  0.3594156830396932  0.7337405330531743
  0.4879378952000130  0.5695038310740956  0.7334377943827562
  0.5213988588339217  0.3457159806580530  0.3298954620601897
 
  0.00000000E+00  0.00000000E+00  0.00000000E+00
  0.00000000E+00  0.00000000E+00  0.00000000E+00
  0.00000000E+00  0.00000000E+00  0.00000000E+00
  0.00000000E+00  0.00000000E+00  0.00000000E+00
  0.00000000E+00  0.00000000E+00  0.00000000E+00
  0.00000000E+00  0.00000000E+00  0.00000000E+00
  0.00000000E+00  0.00000000E+00  0.00000000E+00
  0.00000000E+00  0.00000000E+00  0.00000000E+00
  0.00000000E+00  0.00000000E+00  0.00000000E+00
  0.00000000E+00  0.00000000E+00  0.00000000E+00
  0.00000000E+00  0.00000000E+00  0.00000000E+00
  0.00000000E+00  0.00000000E+00  0.00000000E+00
  0.00000000E+00  0.00000000E+00  0.00000000E+00
  0.00000000E+00  0.00000000E+00  0.00000000E+00
  0.00000000E+00  0.00000000E+00  0.00000000E+00
  0.00000000E+00  0.00000000E+00  0.00000000E+00
